p cnf 107 2
-3 -5 -7 -9 -11 -13 -15 -17 -19 -21 -25 -41 -45 -67 -69 -83 -85 -87 -91 -93 -95 -101 -123 -125 -149 -153 -155 -159 -161 -163 -165 -173 -175 -177 -179 -181 -185 -191 -343 -695 -697 -699 -701 -703 -705 -711 -715 -717 -719 -721 -723 -725 -727 -729 -731 -733 -739 -741 -743 -745 -747 -749 -771 -773 -775 -777 -779 -781 -783 -785 -787 -789 -795 -797 -799 -801 -803 -805 -807 -809 -811 -813 -861 -863 -865 -867 -869 -871 -873 -875 -877 -879 0
-1 -3 -5 -7 -9 -11 -13 -15 -17 -19 -21 -23 -25 -39 -41 -45 -67 -69 -83 -85 -87 -89 -91 -93 -95 -97 -99 -101 -123 -125 -147 -149 -151 -153 -155 -157 -159 -161 -163 -165 -167 -169 -171 -173 -175 -177 -179 -181 -183 -185 -187 -189 -191 -695 -697 -699 -701 -703 -705 -711 -715 -717 -719 -721 -723 -725 -727 -729 -731 -733 -739 -741 -743 -745 -747 -749 -771 -773 -775 -777 -779 -781 -783 -785 -787 -789 -795 -797 -799 -801 -803 -805 -807 -809 -811 -813 -861 -863 -865 -867 -869 -871 -873 -875 -877 -879 0
